
  22   10
  10   10   10   10   10   10   10   10   10   10

   0   0   0   0   0   0   0   0   0   0   0   1 2 
   8   0   0   0   0   0  10   0   0   0   0   2 8 3 
   9  10   0   0   0   0   0   0   0   0   0   2 10 4 
   1   0   0   0   0   0   0  10   0   0   0   1 5 
   6  10   0   0   0   0   0   0   0   0   0   1 6 
   8  10   0   0   0   0   0   0   0   0   0   1 7 
   6   0  10   0   0   0   0   0   0   0   0   1 9 
   8   0   0   0   0   0   0  10   0   0   0   1 9 
   4   0   0   0   0   0   0  10   0   0   0   1 11 
   9   0   0   0   0   0   0  10   0   0   0   1 11 
   5   0   0   0   0   0   0   0  10   0   0   1 12 
   6   0   0   0   0   0   0  10   0   0   0   1 13 
   3   0   0   0   0   0   0   0  10   0   0   1 14 
   1   0   0   0  10   0   0   0   0   0   0   1 15 
   5   0  10   0   0   0   0   0   0   0   0   1 16 
   8   0   0   0   0   0   0  10   0   0   0   1 17 
   7  10   0   0   0   0   0   0   0   0   0   1 18 
   4   0   0   0   0   0   0   0   0   0  10   1 19 
  10   0   0   0   0   0   0   0  10   0   0   1 20 
   8   0   0   0   0   0   0   0   0   0  10   1 21 
  10   0   0  10   0   0   0   0   0   0   0   1 22
   0   0   0   0   0   0   0   0   0   0   0   0 
